(declare-fun var0 () String)
(assert (str.in.re var0 (re.++ (re.+ (re.union (str.to.re "3") (str.to.re "4"))) (re.++ (re.union (re.* (str.to.re "11")) (re.* (str.to.re "222"))) (re.++ (re.* (re.+ (str.to.re "00"))) (re.++ (re.* (re.union (str.to.re "}}") (str.to.re "~"))) (re.++ (re.* (re.+ (str.to.re "|"))) (re.++ (re.+ (re.+ (str.to.re "{{{"))) (re.++ (re.* (re.* (str.to.re "```"))) (re.++ (re.* (re.* (str.to.re "_"))) (re.++ (re.union (re.* (str.to.re "]]")) (re.* (str.to.re "^^"))) (re.++ (re.+ (re.+ (str.to.re "\\\\\\"))) (re.++ (re.* (re.union (str.to.re "@@") (str.to.re "[["))) (re.++ (re.+ (re.union (str.to.re ">>>") (str.to.re "?"))) (re.++ (re.+ (re.* (str.to.re "=="))) (re.++ (re.* (re.* (str.to.re "<<"))) (re.++ (re.* (re.+ (str.to.re ";;"))) (re.++ (re.+ (re.* (str.to.re ":::"))) (re.++ (re.* (re.* (str.to.re "//"))) (re.++ (re.* (re.union (str.to.re "--") (str.to.re "..."))) (re.++ (re.union (re.union (str.to.re "**") (str.to.re "+")) (re.+ (str.to.re ","))) (re.++ (re.union (re.* (str.to.re "''")) (re.union (str.to.re "((") (str.to.re "))"))) (re.++ (re.* (re.+ (str.to.re "&"))) (re.++ (re.union (re.+ (str.to.re "$")) (re.+ (str.to.re "%%%"))) (re.++ (re.+ (re.+ (str.to.re "#"))) (re.++ (re.* (re.+ (str.to.re """"""""))) (re.++ (re.union (re.+ (str.to.re "YY")) (re.union (str.to.re "Z") (str.to.re "!"))) (re.++ (re.union (re.+ (str.to.re "WW")) (re.* (str.to.re "XXX"))) (re.++ (re.union (re.+ (str.to.re "T")) (re.union (str.to.re "U") (str.to.re "V"))) (re.++ (re.+ (re.+ (str.to.re "S"))) (re.++ (re.union (re.* (str.to.re "QQ")) (re.+ (str.to.re "RRR"))) (re.++ (re.+ (re.* (str.to.re "PPP"))) (re.++ (re.union (re.+ (str.to.re "NNN")) (re.+ (str.to.re "OO"))) (re.++ (re.+ (re.union (str.to.re "L") (str.to.re "MM"))) (re.++ (re.union (re.* (str.to.re "JJJ")) (re.+ (str.to.re "K"))) (re.++ (re.+ (re.union (str.to.re "HH") (str.to.re "II"))) (re.++ (re.* (re.union (str.to.re "FF") (str.to.re "GGG"))) (re.++ (re.union (re.union (str.to.re "BB") (str.to.re "CCC")) (re.union (str.to.re "DDD") (str.to.re "EE"))) (re.++ (re.* (re.* (str.to.re "A"))) (re.++ (re.* (re.+ (str.to.re "zzz"))) (re.++ (re.union (re.union (str.to.re "w") (str.to.re "xx")) (re.+ (str.to.re "y"))) (re.++ (re.+ (re.* (str.to.re "v"))) (re.++ (re.+ (re.union (str.to.re "ttt") (str.to.re "uu"))) (re.++ (re.union (re.+ (str.to.re "rr")) (re.* (str.to.re "s"))) (re.++ (re.* (re.union (str.to.re "pp") (str.to.re "qq"))) (re.++ (re.+ (re.union (str.to.re "n") (str.to.re "o"))) (re.++ (re.+ (re.+ (str.to.re "mm"))) (re.++ (re.* (re.* (str.to.re "ll"))) (re.++ (re.* (re.* (str.to.re "kkk"))) (re.++ (re.union (re.+ (str.to.re "iii")) (re.* (str.to.re "jjj"))) (re.++ (re.+ (re.+ (str.to.re "hhh"))) (re.++ (re.+ (re.+ (str.to.re "gg"))) (re.++ (re.union (re.* (str.to.re "d")) (re.union (str.to.re "e") (str.to.re "ff"))) (re.++ (re.* (re.union (str.to.re "b") (str.to.re "cc"))) (re.++ (re.* (re.* (str.to.re "a"))) (re.++ (re.union (re.union (str.to.re "7") (str.to.re "8")) (re.+ (str.to.re "9"))) (re.++ (re.* (re.union (str.to.re "55") (str.to.re "6"))) (re.++ (re.* (re.* (str.to.re "44"))) (re.++ (re.+ (re.union (str.to.re "22") (str.to.re "33"))) (re.++ (re.* (re.* (str.to.re "1"))) (re.+ (re.+ (str.to.re "0")))))))))))))))))))))))))))))))))))))))))))))))))))))))))))))))
(check-sat)